c description: Random 3-CNF over 15 variables and 60 clauses
p cnf 15 60
2 -5 -9 0
5 -9 11 0
12 14 -15 0
6 -13 14 0
10 14 15 0
-1 6 -12 0
7 12 15 0
-2 10 15 0
7 -9 14 0
-1 2 -13 0
-7 -8 9 0
2 -4 13 0
1 5 -14 0
-7 -12 15 0
4 9 13 0
-1 4 -14 0
-4 -6 12 0
4 7 -10 0
4 10 -11 0
-4 -9 -14 0
-4 -13 14 0
-3 4 6 0
1 5 -6 0
-7 -10 -14 0
5 -14 -15 0
3 -4 -6 0
3 5 6 0
1 -5 13 0
3 -4 -5 0
-6 13 -14 0
3 7 -13 0
1 -2 -10 0
6 10 -12 0
3 7 -15 0
10 -11 -12 0
1 4 -12 0
5 6 -14 0
-1 -4 15 0
5 -7 15 0
-5 -7 -15 0
-4 -6 -13 0
4 -6 7 0
-3 7 8 0
1 9 13 0
-7 -11 -13 0
-10 13 14 0
2 11 -12 0
4 12 14 0
-3 -10 -13 0
3 -8 -10 0
-4 -11 15 0
-5 11 -13 0
3 10 13 0
3 6 -14 0
3 6 -8 0
-9 12 13 0
1 2 -14 0
-2 -4 8 0
-10 11 14 0
-2 -4 13 0